c description: Random 3-CNF over 20 variables and 55 clauses
c generator: CNFgen (0.9.0)
c copyright: (C) 2012-2020 Massimo Lauria <massimo.lauria@uniroma1.it>
c url: https://massimolauria.net/cnfgen
c command line: cnfgen randkcnf 3 20 55
c
p cnf 20 55
3 7 -19 0
11 12 14 0
-5 -6 20 0
1 -14 -18 0
-5 -9 11 0
-6 15 -18 0
-8 -17 20 0
-8 13 20 0
1 5 -20 0
-2 -9 -13 0
8 -10 -12 0
8 13 -18 0
2 7 -16 0
10 -13 17 0
2 8 -12 0
4 15 18 0
3 15 18 0
-4 8 12 0
-1 -4 17 0
15 -16 19 0
-1 -15 -16 0
3 -13 -19 0
8 13 -15 0
-1 5 14 0
8 -9 13 0
-1 -9 16 0
-5 -11 -19 0
-8 14 19 0
3 -15 -20 0
-1 3 5 0
3 4 -14 0
-3 6 18 0
-8 9 -20 0
-1 17 19 0
-4 8 9 0
4 -9 13 0
3 11 16 0
1 -8 12 0
-5 -11 -16 0
13 15 18 0
-6 -13 16 0
10 -16 -19 0
2 -6 -18 0
13 -15 17 0
2 -9 -14 0
-17 19 -20 0
-7 12 -18 0
4 10 -15 0
-3 4 -20 0
6 -8 -15 0
3 5 20 0
-2 -12 14 0
-3 -12 -15 0
-1 -4 -9 0
5 6 -9 0
